(set-info :smt-lib-version 2.6)
(set-logic QF_UFLRA)
(set-info :source |
MathSat group

|)
(set-info :category "random")
(set-info :status sat)
(declare-fun x0 () Real)
(declare-fun x1 () Real)
(declare-fun x2 () Real)
(declare-fun x3 () Real)
(declare-fun x4 () Real)
(declare-fun x5 () Real)
(declare-fun x6 () Real)
(declare-fun x7 () Real)
(declare-fun x8 () Real)
(declare-fun x9 () Real)
(declare-fun x10 () Real)
(declare-fun x11 () Real)
(declare-fun x12 () Real)
(declare-fun x13 () Real)
(declare-fun x14 () Real)
(declare-fun x15 () Real)
(declare-fun x16 () Real)
(declare-fun x17 () Real)
(declare-fun x18 () Real)
(declare-fun x19 () Real)
(declare-fun x20 () Real)
(declare-fun x21 () Real)
(declare-fun x22 () Real)
(declare-fun x23 () Real)
(declare-fun x24 () Real)
(declare-fun x25 () Real)
(declare-fun x26 () Real)
(declare-fun x27 () Real)
(declare-fun x28 () Real)
(declare-fun x29 () Real)
(declare-fun f0_1 (Real) Real)
(declare-fun f0_2 (Real Real) Real)
(declare-fun f0_3 (Real Real Real) Real)
(declare-fun f0_4 (Real Real Real Real) Real)
(declare-fun P0 () Bool)
(declare-fun P1 () Bool)
(declare-fun P2 () Bool)
(declare-fun P3 () Bool)
(declare-fun P4 () Bool)
(declare-fun P5 () Bool)
(declare-fun P6 () Bool)
(declare-fun P7 () Bool)
(declare-fun P8 () Bool)
(declare-fun P9 () Bool)
(declare-fun P10 () Bool)
(declare-fun P11 () Bool)
(declare-fun P12 () Bool)
(declare-fun P13 () Bool)
(declare-fun P14 () Bool)
(declare-fun P15 () Bool)
(declare-fun P16 () Bool)
(declare-fun P17 () Bool)
(declare-fun P18 () Bool)
(declare-fun P19 () Bool)
(declare-fun P20 () Bool)
(declare-fun P21 () Bool)
(declare-fun P22 () Bool)
(declare-fun P23 () Bool)
(declare-fun P24 () Bool)
(declare-fun P25 () Bool)
(declare-fun P26 () Bool)
(declare-fun P27 () Bool)
(declare-fun P28 () Bool)
(declare-fun P29 () Bool)
(assert (let ((?v_5 (< (+ (- (* 18 x1) (* 23 x10)) (* 42 x5)) 15)) (?v_3 (<= (- (+ (* 23 x15) (* 7 x28)) (* 24 x2)) 10)) (?v_91 (* 20 x7)) (?v_97 (<= (+ (- (* 34 x19) (* 6 x2)) (* 42 x3)) 2))) (let ((?v_100 (= (- (- (* 22 x17) (* 32 x21)) ?v_91) 22)) (?v_120 (<= (+ (- (* 19 x16) (* 33 x7)) (* 13 x7)) 26)) (?v_112 (<= (- (- (* 40 x1) (* 40 x21)) (* 24 x14)) 0)) (?v_77 (<= (+ (- (* 2 x11) (* 39 x7)) (* 18 x14)) 32)) (?v_45 (< (- (- (* 29 x15) (* 6 x8)) (* 20 x19)) 27)) (?v_105 (<= (- (+ (* 8 x2) (* 28 x21)) (* 10 x18)) 5)) (?v_101 (distinct x18 (f0_2 x0 x3))) (?v_27 (f0_1 x7))) (let ((?v_148 (= x8 ?v_27)) (?v_126 (= (f0_1 x3) (f0_2 x22 x23))) (?v_22 (distinct (f0_2 x13 x2) x1)) (?v_23 (f0_1 x28))) (let ((?v_24 (distinct ?v_23 (f0_2 x0 x26))) (?v_71 (distinct x3 x10)) (?v_94 (f0_1 x10))) (let ((?v_111 (distinct x10 ?v_94)) (?v_58 (distinct (f0_2 x19 x4) x29)) (?v_61 (= (f0_2 x24 x10) (f0_2 x29 x18))) (?v_17 (distinct ?v_27 (f0_2 x4 x10))) (?v_41 (distinct (f0_1 x24) x16)) (?v_50 (f0_1 x27))) (let ((?v_54 (= ?v_50 (f0_2 x26 x17))) (?v_145 (= (f0_2 x24 x20) (f0_2 x12 x12))) (?v_75 (= (f0_2 x27 x29) x22)) (?v_44 (= (f0_2 x17 x4) ?v_50)) (?v_14 (distinct x21 (f0_1 x11))) (?v_37 (f0_1 x12))) (let ((?v_129 (distinct (f0_2 x29 x5) ?v_37)) (?v_20 (distinct (f0_2 x29 x15) x22)) (?v_74 (distinct (f0_2 x23 x24) (f0_1 x1))) (?v_67 (distinct (f0_1 x16) x8)) (?v_144 (= x26 x24)) (?v_26 (= (f0_1 x23) (f0_2 x18 x28))) (?v_60 (distinct (f0_2 x14 x17) x28)) (?v_70 (= x23 (f0_2 x25 x2))) (?v_95 (distinct x15 ?v_37)) (?v_99 (= x22 x0)) (?v_84 (distinct (f0_2 x18 x9) x24)) (?v_63 (= ?v_94 x4)) (?v_21 (= x5 (f0_1 x5))) (?v_10 (distinct ?v_23 (f0_2 x12 x5))) (?v_1 (not P25))) (let ((?v_36 (not ?v_144)) (?v_96 (not ?v_99)) (?v_79 (not P27)) (?v_73 (not P11)) (?v_102 (not P14)) (?v_11 (not P9)) (?v_2 (not ?v_21)) (?v_117 (not ?v_74)) (?v_118 (not P23)) (?v_85 (not ?v_41)) (?v_43 (not ?v_5)) (?v_87 (not ?v_61)) (?v_25 (not P15)) (?v_15 (not ?v_10)) (?v_13 (not ?v_22)) (?v_89 (not P4)) (?v_52 (not P12)) (?v_48 (not P28)) (?v_81 (not ?v_129)) (?v_59 (not ?v_58)) (?v_64 (not ?v_17)) (?v_108 (not P1)) (?v_86 (not ?v_44)) (?v_35 (not ?v_20)) (?v_38 (not P26)) (?v_110 (not P17)) (?v_42 (not ?v_26)) (?v_69 (not P29)) (?v_28 (not ?v_148)) (?v_135 (not ?v_70)) (?v_47 (not ?v_63)) (?v_123 (not ?v_145)) (?v_76 (not ?v_45)) (?v_82 (not P3)) (?v_57 (not P10)) (?v_136 (not P18)) (?v_78 (not P20)) (?v_104 (not ?v_24)) (?v_142 (not ?v_71)) (?v_121 (not ?v_54)) (?v_72 (not ?v_60)) (?v_83 (not ?v_75)) (?v_131 (not P24)) (?v_132 (not ?v_77)) (?v_114 (not P21)) (?v_103 (not P8)) (?v_122 (not ?v_111)) (?v_98 (not ?v_95)) (?v_106 (not ?v_97)) (?v_119 (not ?v_100)) (?v_107 (not ?v_67)) (?v_124 (not ?v_14)) (?v_133 (not ?v_126)) (?v_116 (not ?v_101)) (?v_127 (not P19)) (?v_130 (not P7)) (?v_152 (not P16)) (?v_137 (not ?v_84)) (?v_128 (not ?v_105)) (?v_146 (not ?v_120)) (?v_141 (not P0)) (?v_138 (not ?v_112)) (?v_147 (not P2)) (?v_139 (not P6)) (?v_150 (not P22)) (?v_149 (not P13)) (?v_51 (<= (+ (* 25 x28) (* 7 x11) (* 27 x28)) 15))) (let ((?v_7 (not ?v_51)) (?v_9 (< (+ (- x3 (* 24 x4)) (* 5 x24)) 0))) (let ((?v_6 (not ?v_9)) (?v_80 (= (+ (* 13 x27) (* 16 x17) (* 9 x20)) 4))) (let ((?v_134 (not ?v_80)) (?v_55 (<= (- (- (* (- 39) x16) (* 27 x23)) (* 38 x28)) 0))) (let ((?v_46 (not ?v_55)) (?v_32 (distinct (+ (- (* (- 24) x19) (* 31 x19)) (* 18 x2)) (- 12)))) (let ((?v_4 (not ?v_32)) (?v_33 (<= (+ (- (* 27 x16) (* 7 x15)) (* 30 x8)) (- 27)))) (let ((?v_30 (not ?v_33)) (?v_53 (<= (- (+ (* (- 34) x11) (* 19 x24)) (* 32 x8)) (- 16)))) (let ((?v_0 (not ?v_53)) (?v_16 (< (+ (- (* (- 30) x8) (* 5 x29)) (* 30 x27)) (- 11))) (?v_8 (= (+ (* (- 23) x1) (* 3 x26) (* 18 x13)) 27))) (let ((?v_39 (not ?v_8)) (?v_19 (<= (+ (* 12 x24) (* 18 x15) (* 13 x14)) (- 5))) (?v_18 (< (- (- (* (- 20) x7) (* 9 x12)) (* 23 x6)) 0))) (let ((?v_90 (not ?v_18)) (?v_12 (<= (+ (- (* (- 21) x16) (* 39 x28)) (* 34 x16)) 39))) (let ((?v_153 (not ?v_12)) (?v_62 (< (- (* (- 16) x11) (* 35 x5)) (- 17)))) (let ((?v_31 (not ?v_62)) (?v_88 (< (+ (* (- 18) x4) (* 4 x9) (* 23 x28)) 36))) (let ((?v_66 (not ?v_88)) (?v_49 (< (- (+ (* (- 42) x17) (* 42 x8)) (* 33 x12)) (- 23))) (?v_29 (<= (+ (* (- 32) x3) (* 17 x19) (* 18 x9)) 34))) (let ((?v_34 (not ?v_29)) (?v_93 (< (- (+ (* 42 x9) (* 37 x4)) (* 23 x11)) (- 42)))) (let ((?v_40 (not ?v_93)) (?v_65 (not ?v_19)) (?v_56 (< (+ (* 14 x6) (* 11 x16) (* 6 x3)) (- 27))) (?v_68 (not ?v_16)) (?v_92 (<= (+ (- (* (- 29) x12) (* 18 x12)) (* 11 x21)) (- 14)))) (let ((?v_140 (not ?v_92)) (?v_109 (not ?v_49)) (?v_143 (< (+ (- (* 24 x10) (* 38 x19)) ?v_91) (- 37)))) (let ((?v_113 (not ?v_143)) (?v_151 (<= (- (* (- 35) x18) (* 31 x12)) (- 31)))) (let ((?v_115 (not ?v_151)) (?v_125 (not ?v_56))) (and (and (and (and (and (and (and (and (and (and (and (and (and (and (and (and (and (and (and (and (and (and (and (and (and (and (and (and (and (and (and (and (and (and (and (and (and (and (and (and (and (and (and (and (and (and (and (and (and (and (and (and (and (and (and (and (and (and (and (and (and (and (and (and (and (and (and (and (and (and (and (and (and (and (and (and (and (and (and (and (and (and (and (and (and (and (and (and (and (and (and (and (and (and (and (and (and (and (and (and (and (and (and (and (and (and (and (and (and (and (and (and (and (and (and (and (and (and (and (and (and (and (and (and (and (and (and (and (and (and (and (and (and (and (and (and (and (and (and (and (and (and (and (and (and (and (and (and (and (and (and (and (and (and (and (and (and (and (and (and (and (and (and (and (and (and (and (and (and (and (and (and (and (and (and (and (and (and (and (and (and (and (and (and (and (and (and (and (and (and (and (and (and (and (and (and (and (and (and (and (and (and (and (and (and (and (and (and (and (and (and (and (and (and (and (and (and (and (and (and (and (and (and (and (and (and (and (and (and (and (and (and (and (and (and (and (and (and (and (and (and (and (and (and (and (and (and (and (and (and (and (and (and (and (and (and (and (and (and (and (and (and (and (and (and (and (and (and (and (and (and (and (and (and (and (and (and (and (and (and (and (and (and (and (and (and (and (and (and (and (and (and (and (and (and (and (and (and (and (and (and (and (and (and (and (and (and (and (and (and (and (and (and (and (and (and (and (and (and (and (and (and (and (and (and (and (and (and (and (and (and (and (and (and (and (and (and (and (and (and (and (and (and (and (and (and (and (and (and (and (and (and (and (and (and (and (and (and (and (or (or ?v_1 P2) ?v_46) (or (or ?v_4 ?v_30) ?v_36)) (or (or P26 ?v_3) ?v_0)) (or (or ?v_16 ?v_96) ?v_39)) (or (or ?v_19 ?v_79) ?v_14)) (or (or ?v_17 ?v_73) ?v_102)) (or (or ?v_0 ?v_11) ?v_2)) (or (or ?v_90 ?v_117) ?v_20)) (or (or ?v_1 ?v_71) ?v_153)) (or (or ?v_31 ?v_118) P17)) (or (or ?v_85 ?v_101) ?v_2)) (or (or ?v_43 ?v_3) ?v_7)) (or (or ?v_87 ?v_4) ?v_25)) (or (or ?v_5 ?v_15) ?v_6)) (or (or ?v_13 ?v_66) ?v_89)) (or (or ?v_49 ?v_52) P9)) (or (or P24 ?v_34) ?v_48)) (or (or ?v_6 ?v_45) ?v_2)) (or (or ?v_26 ?v_7) ?v_40)) (or (or ?v_8 ?v_80) P24)) (or (or ?v_9 ?v_10) ?v_81)) (or (or P28 P7) ?v_11)) (or (or ?v_12 ?v_13) ?v_14)) (or (or ?v_15 ?v_16) ?v_100)) (or (or P16 ?v_59) P24)) (or (or ?v_64 ?v_18) P2)) (or (or ?v_65 P20) ?v_108)) (or (or ?v_60 ?v_86) ?v_35)) (or (or ?v_21 ?v_22) ?v_24)) (or (or ?v_24 ?v_67) P22)) (or (or P13 ?v_38) ?v_110)) (or (or ?v_16 ?v_25) ?v_42)) (or (or ?v_69 ?v_28) ?v_18)) (or (or P15 ?v_28) P14)) (or (or ?v_14 P21) ?v_24)) (or (or P20 ?v_29) P7)) (or (or P29 ?v_30) ?v_135)) (or (or P1 ?v_25) ?v_47)) (or (or ?v_25 ?v_31) ?v_32)) (or (or ?v_33 ?v_20) ?v_32)) (or (or ?v_34 P28) ?v_35)) (or (or ?v_8 ?v_36) ?v_97)) (or (or ?v_32 ?v_95) ?v_38)) (or (or ?v_39 ?v_15) ?v_40)) (or (or ?v_41 ?v_42) P9)) (or (or ?v_36 ?v_16) ?v_123)) (or (or ?v_8 ?v_1) ?v_43)) (or (or ?v_44 ?v_19) ?v_76)) (or (or ?v_18 ?v_46) ?v_47)) (or (or ?v_48 ?v_49) ?v_42)) (or (or ?v_77 ?v_82) ?v_54)) (or (or ?v_36 ?v_51) ?v_49)) (or (or ?v_7 ?v_46) ?v_43)) (or (or P20 ?v_56) ?v_57)) (or (or ?v_14 ?v_9) ?v_52)) (or (or ?v_136 ?v_78) ?v_53)) (or (or ?v_54 ?v_55) ?v_56)) (or (or ?v_12 ?v_57) ?v_56)) (or (or ?v_104 ?v_58) ?v_68)) (or (or ?v_59 ?v_60) P0)) (or (or P25 ?v_49) P10)) (or (or ?v_61 ?v_9) ?v_62)) (or (or ?v_120 ?v_63) ?v_40)) (or (or ?v_42 ?v_64) P22)) (or (or ?v_30 ?v_30) ?v_51)) (or (or P22 ?v_65) ?v_66)) (or (or P15 P6) P27)) (or (or ?v_4 ?v_63) ?v_55)) (or (or P14 ?v_67) ?v_58)) (or (or ?v_16 ?v_34) P6)) (or (or ?v_25 ?v_44) P1)) (or (or ?v_0 ?v_68) ?v_69)) (or (or P4 (not P5)) P10)) (or (or ?v_5 ?v_70) ?v_142)) (or (or P25 ?v_121) ?v_84)) (or (or ?v_45 ?v_67) ?v_72)) (or (or ?v_20 P20) ?v_59)) (or (or ?v_56 ?v_17) ?v_18)) (or (or ?v_72 ?v_0) ?v_83)) (or (or ?v_63 ?v_51) ?v_73)) (or (or ?v_8 P2) ?v_74)) (or (or ?v_131 ?v_75) ?v_76)) (or (or ?v_76 ?v_132) ?v_15)) (or (or ?v_69 ?v_36) ?v_140)) (or (or ?v_114 ?v_20) P17)) (or (or ?v_78 ?v_79) ?v_134)) (or (or ?v_44 ?v_81) ?v_69)) (or (or ?v_81 ?v_69) ?v_82)) (or (or ?v_18 ?v_83) ?v_39)) (or (or P0 ?v_84) ?v_85)) (or (or ?v_75 P4) ?v_86)) (or (or ?v_3 ?v_48) ?v_103)) (or (or ?v_7 P15) P19)) (or (or P0 ?v_87) ?v_29)) (or (or P5 ?v_88) ?v_89)) (or (or ?v_75 ?v_90) ?v_109)) (or (or ?v_5 ?v_81) ?v_69)) (or (or ?v_113 ?v_105) ?v_92)) (or (or ?v_62 ?v_115) ?v_79)) (or (or ?v_4 P14) P12)) (or (or ?v_93 ?v_122) ?v_98)) (or (or P10 ?v_38) ?v_42)) (or (or ?v_96 ?v_106) ?v_34)) (or (or P23 ?v_49) P20)) (or (or ?v_82 ?v_68) ?v_10)) (or (or P19 ?v_6) ?v_30)) (or (or ?v_90 ?v_80) P4)) (or (or ?v_98 ?v_24) ?v_99)) (or (or ?v_119 ?v_60) ?v_76)) (or (or ?v_66 ?v_89) ?v_101)) (or (or ?v_48 ?v_96) ?v_6)) (or (or ?v_47 ?v_78) ?v_59)) (or (or ?v_107 ?v_67) ?v_20)) (or (or ?v_102 ?v_103) ?v_104)) (or (or ?v_105 ?v_75) ?v_49)) (or (or ?v_41 ?v_0) ?v_124)) (or (or ?v_45 P26) ?v_83)) (or (or ?v_106 ?v_9) ?v_107)) (or (or ?v_133 ?v_40) ?v_65)) (or (or ?v_22 ?v_28) ?v_41)) (or (or ?v_112 ?v_84) ?v_108)) (or (or ?v_18 ?v_109) ?v_19)) (or (or P23 ?v_53) P21)) (or (or ?v_28 ?v_1) ?v_55)) (or (or ?v_62 ?v_110) ?v_111)) (or (or ?v_48 ?v_112) ?v_47)) (or (or ?v_40 ?v_58) ?v_17)) (or (or ?v_49 P19) ?v_3)) (or (or ?v_97 ?v_113) ?v_29)) (or (or ?v_25 P2) ?v_80)) (or (or ?v_116 ?v_24) P6)) (or (or ?v_38 ?v_28) P27)) (or (or ?v_70 P29) ?v_86)) (or (or ?v_0 P10) ?v_114)) (or (or ?v_72 ?v_111) ?v_24)) (or (or ?v_49 ?v_19) ?v_3)) (or (or P9 ?v_127) ?v_79)) (or (or ?v_84 ?v_74) ?v_130)) (or (or ?v_16 ?v_84) P2)) (or (or ?v_115 ?v_85) P2)) (or (or ?v_111 ?v_51) ?v_95)) (or (or ?v_68 ?v_82) ?v_116)) (or (or ?v_64 ?v_64) ?v_24)) (or (or ?v_117 ?v_83) ?v_152)) (or (or ?v_12 P19) P3)) (or (or P12 ?v_137) ?v_100)) (or (or ?v_12 ?v_97) ?v_3)) (or (or ?v_12 ?v_128) ?v_67)) (or (or ?v_109 ?v_118) ?v_29)) (or (or ?v_99 ?v_75) ?v_11)) (or (or ?v_35 ?v_119) ?v_120)) (or (or ?v_121 P25) ?v_122)) (or (or ?v_21 ?v_114) ?v_66)) (or (or ?v_39 ?v_109) ?v_20)) (or (or ?v_41 P29) P20)) (or (or ?v_118 ?v_79) ?v_123)) (or (or ?v_45 ?v_110) ?v_125)) (or (or ?v_39 ?v_46) P13)) (or (or ?v_104 ?v_124) ?v_116)) (or (or P27 P20) ?v_43)) (or (or P20 ?v_52) ?v_59)) (or (or ?v_52 ?v_81) ?v_8)) (or (or ?v_124 ?v_100) ?v_125)) (or (or ?v_96 ?v_63) ?v_126)) (or (or P14 ?v_79) ?v_45)) (or (or P4 ?v_46) P22)) (or (or ?v_107 (not ?v_3)) ?v_127)) (or (or ?v_69 ?v_61) ?v_73)) (or (or ?v_7 ?v_15) P29)) (or (or ?v_116 ?v_9) ?v_146)) (or (or ?v_114 ?v_19) ?v_141)) (or (or ?v_6 ?v_24) ?v_72)) (or (or ?v_128 ?v_99) ?v_52)) (or (or ?v_103 ?v_129) ?v_111)) (or (or ?v_130 ?v_89) P10)) (or (or ?v_138 ?v_131) ?v_101)) (or (or P20 ?v_46) P6)) (or (or ?v_39 ?v_132) ?v_32)) (or (or ?v_54 P11) ?v_147)) (or (or ?v_68 ?v_77) ?v_102)) (or (or P19 ?v_25) ?v_83)) (or (or ?v_127 ?v_6) P18)) (or (or ?v_20 ?v_120) P1)) (or (or ?v_90 ?v_98) ?v_29)) (or (or ?v_84 P15) ?v_21)) (or (or ?v_12 P29) ?v_9)) (or (or ?v_84 P9) ?v_53)) (or (or ?v_80 ?v_133) P29)) (or (or ?v_8 ?v_110) ?v_89)) (or (or ?v_62 ?v_19) ?v_87)) (or (or ?v_123 ?v_73) P25)) (or (or ?v_47 ?v_85) ?v_134)) (or (or ?v_135 ?v_62) ?v_72)) (or (or P21 ?v_118) ?v_56)) (or (or ?v_13 ?v_136) ?v_69)) (or (or ?v_88 ?v_83) ?v_72)) (or (or ?v_66 ?v_137) ?v_49)) (or (or ?v_113 ?v_11) ?v_139)) (or (or ?v_1 ?v_68) ?v_102)) (or (or ?v_113 P2) ?v_123)) (or (or ?v_138 ?v_36) P3)) (or (or ?v_74 ?v_76) ?v_99)) (or (or ?v_123 P26) ?v_52)) (or (or P20 ?v_130) ?v_100)) (or (or P3 ?v_81) ?v_114)) (or (or ?v_117 ?v_61) ?v_110)) (or (or ?v_79 ?v_124) ?v_18)) (or (or ?v_150 ?v_95) ?v_110)) (or (or ?v_137 ?v_139) ?v_79)) (or (or P13 ?v_58) ?v_126)) (or (or ?v_55 ?v_89) P11)) (or (or ?v_40 ?v_105) ?v_73)) (or (or ?v_136 ?v_140) ?v_126)) (or (or ?v_106 ?v_135) P6)) (or (or P18 P25) ?v_132)) (or (or P10 ?v_16) ?v_54)) (or (or ?v_13 ?v_90) ?v_80)) (or (or ?v_42 ?v_90) P8)) (or (or P27 ?v_121) ?v_141)) (or (or P11 ?v_142) ?v_124)) (or (or ?v_13 ?v_36) P11)) (or (or ?v_100 ?v_132) P29)) (or (or ?v_143 ?v_122) P16)) (or (or ?v_55 ?v_96) ?v_4)) (or (or ?v_2 ?v_6) P19)) (or (or ?v_2 ?v_22) ?v_127)) (or (or ?v_111 ?v_64) ?v_39)) (or (or ?v_114 P23) P8)) (or (or ?v_21 ?v_98) ?v_144)) (or (or ?v_5 ?v_128) ?v_1)) (or (or ?v_136 ?v_143) ?v_92)) (or (or P11 ?v_85) ?v_126)) (or (or ?v_135 ?v_53) ?v_136)) (or (or ?v_145 ?v_33) ?v_99)) (or (or ?v_7 ?v_121) P3)) (or (or ?v_59 ?v_34) ?v_124)) (or (or ?v_9 ?v_129) ?v_60)) (or (or ?v_107 ?v_20) P2)) (or (or ?v_2 ?v_7) ?v_72)) (or (or ?v_6 ?v_44) ?v_136)) (or (or ?v_65 ?v_52) ?v_44)) (or (or ?v_126 P12) ?v_79)) (or (or ?v_51 ?v_72) ?v_9)) (or (or ?v_7 ?v_62) ?v_149)) (or (or ?v_10 ?v_69) P18)) (or (or ?v_86 P12) ?v_129)) (or (or ?v_31 ?v_54) ?v_61)) (or (or ?v_110 ?v_130) ?v_142)) (or (or ?v_74 ?v_140) ?v_130)) (or (or ?v_75 ?v_41) ?v_19)) (or (or ?v_88 ?v_100) P28)) (or (or ?v_137 ?v_28) ?v_34)) (or (or ?v_1 ?v_97) ?v_137)) (or (or P9 ?v_11) ?v_38)) (or (or P11 ?v_126) ?v_98)) (or (or ?v_107 ?v_82) ?v_26)) (or (or ?v_65 ?v_124) ?v_74)) (or (or P4 ?v_0) ?v_47)) (or (or ?v_41 ?v_47) ?v_97)) (or (or P6 ?v_84) P11)) (or (or ?v_134 P29) ?v_146)) (or (or ?v_140 ?v_122) ?v_71)) (or (or ?v_121 ?v_21) P9)) (or (or ?v_147 ?v_126) ?v_107)) (or (or ?v_49 ?v_5) ?v_86)) (or (or ?v_129 ?v_89) ?v_97)) (or (or ?v_66 ?v_71) ?v_42)) (or (or ?v_99 ?v_146) P14)) (or (or ?v_70 ?v_142) ?v_78)) (or (or ?v_65 ?v_89) P3)) (or (or ?v_35 ?v_56) ?v_22)) (or (or ?v_46 ?v_106) ?v_45)) (or (or ?v_75 ?v_3) ?v_107)) (or (or ?v_96 ?v_68) ?v_60)) (or (or ?v_75 ?v_63) ?v_74)) (or (or ?v_17 ?v_140) ?v_102)) (or (or ?v_28 ?v_148) ?v_11)) (or (or P2 ?v_142) ?v_102)) (or (or ?v_73 ?v_122) ?v_96)) (or (or ?v_40 P25) ?v_5)) (or (or P11 ?v_146) ?v_29)) (or (or ?v_28 ?v_149) P21)) (or (or ?v_150 ?v_130) P17)) (or (or ?v_15 ?v_51) ?v_99)) (or (or ?v_21 ?v_130) ?v_8)) (or (or ?v_62 ?v_43) P29)) (or (or P9 ?v_15) ?v_7)) (or (or ?v_129 ?v_135) ?v_146)) (or (or P6 ?v_78) P26)) (or (or ?v_99 ?v_40) P14)) (or (or ?v_143 ?v_78) P6)) (or (or ?v_67 ?v_58) ?v_128)) (or (or ?v_34 ?v_142) ?v_74)) (or (or ?v_16 ?v_106) ?v_136)) (or (or ?v_138 ?v_101) ?v_39)) (or (or ?v_89 ?v_135) ?v_49)) (or (or ?v_148 ?v_107) ?v_68)) (or (or P24 ?v_48) ?v_151)) (or (or ?v_12 ?v_1) ?v_106)) (or (or ?v_56 ?v_127) ?v_24)) (or (or ?v_6 ?v_149) ?v_52)) (or (or ?v_61 ?v_17) ?v_120)) (or (or P20 ?v_71) P0)) (or (or ?v_86 ?v_64) ?v_134)) (or (or ?v_49 ?v_20) P10)) (or (or ?v_112 P5) ?v_61)) (or (or ?v_11 ?v_2) ?v_63)) (or (or ?v_13 ?v_83) ?v_103)) (or (or ?v_30 ?v_88) ?v_18)) (or (or ?v_2 ?v_29) ?v_126)) (or (or P8 ?v_109) ?v_152)) (or (or ?v_103 ?v_90) ?v_113)) (or (or ?v_20 P21) ?v_61)) (or (or ?v_97 ?v_28) ?v_135)) (or (or ?v_57 ?v_115) ?v_84)) (or (or ?v_45 ?v_71) ?v_4)) (or (or ?v_103 ?v_149) ?v_21)) (or (or ?v_38 P19) ?v_112)) (or (or ?v_152 ?v_63) ?v_60)) (or (or ?v_109 P17) P12)) (or (or ?v_67 P6) ?v_72)) (or (or ?v_137 ?v_98) ?v_127)) (or (or ?v_15 P12) ?v_4)) (or (or ?v_141 ?v_74) ?v_92)) (or (or ?v_137 ?v_143) ?v_20)) (or (or ?v_42 ?v_124) ?v_40)) (or (or ?v_43 ?v_112) ?v_25)) (or (or ?v_72 ?v_54) ?v_111)) (or (or ?v_125 ?v_20) P5)) (or (or ?v_101 P17) P11)) (or (or ?v_144 ?v_9) ?v_5)) (or (or ?v_34 ?v_146) ?v_86)) (or (or P18 ?v_43) ?v_88)) (or (or ?v_135 ?v_26) ?v_131)) (or (or P25 ?v_130) ?v_76)) (or (or ?v_84 ?v_104) ?v_2)) (or (or P20 ?v_122) ?v_3)) (or (or P3 ?v_71) P10)) (or (or ?v_0 ?v_84) ?v_30)) (or (or ?v_115 ?v_58) P14)) (or (or ?v_90 ?v_89) ?v_58)) (or (or ?v_30 ?v_59) ?v_100)) (or (or ?v_62 ?v_95) ?v_139)) (or (or ?v_22 ?v_6) P3)) (or (or ?v_133 ?v_153) ?v_115)) (or (or ?v_9 ?v_112) ?v_106)) (or (or ?v_143 P11) ?v_51)) (or (or ?v_95 ?v_95) ?v_38)) (or (or ?v_34 ?v_24) P13)) (or (or ?v_151 ?v_140) ?v_120)) (or (or ?v_8 P25) ?v_103)) (or (or ?v_143 ?v_58) P12)) (or (or ?v_15 ?v_38) ?v_30)) (or (or ?v_49 ?v_1) ?v_81)) (or (or ?v_42 ?v_57) P7)) (or (or ?v_106 ?v_97) ?v_13)) (or (or ?v_123 ?v_46) ?v_134)) (or (or ?v_81 P23) ?v_87)) (or (or ?v_8 ?v_22) P20)) (or (or ?v_45 ?v_54) ?v_79))))))))))))))))))))))))))))
(check-sat)
(exit)
